Minimize
    11 x0 + 12 x1 + 16 x2 + 17 x3 + 26 x4 + 41 x5 + 53 x6 + 62 x7 + 72 x8 + 74 x9 + 75 x10 + 90 x11 + 101 x12 + 113 x13 + 115 x14 + 130 x15 + 144 x16 + 150 x17 + 154 x18 + 154 x19 + 155 x20 + 158 x21 + 167 x22 + 173 x23 + 183 x24 + 185 x25 + 201 x26 + 208 x27 + 221 x28 + 230 x29 + 232 x30 + 236 x31
Subject To
    c0: -97 x0 + 85 x1 + 58 x2 - 56 x3 + 43 x4 + 4 x5 - 110 x6 + 84 x7 - 89 x8 + 37 x9 - 122 x10 + 16 x11 + 7 x12 - 77 x13 + 102 x14 - 64 x15 + 50 x16 + 126 x17 - 59 x18 + 25 x19 - 112 x20 + 57 x21 + 123 x22 + 41 x23 + 70 x24 + 86 x25 - 31 x26 - 101 x27 + 115 x28 + 2 x29 + 60 x30 + 89 x31 >= -96
    c1: 84 x0 - 91 x1 - 26 x2 - 27 x3 + 34 x4 - 2 x5 + 29 x6 + 102 x7 + 85 x8 - 99 x9 + 48 x10 + 80 x11 - 4 x12 - 77 x13 + 36 x14 - 99 x15 - 69 x16 + 3 x17 + 12 x18 - 106 x19 - 117 x20 + 57 x21 + 41 x22 - 20 x23 - 48 x24 + 3 x25 + 107 x26 - 101 x27 - 39 x28 - 86 x29 - 52 x30 + 113 x31 >= -43
    c2: 4 x0 + 124 x1 + 19 x2 - 111 x3 + 30 x4 + 65 x5 - 3 x6 - 118 x7 + 88 x8 - 76 x9 + 67 x10 - 17 x11 - 100 x12 - 112 x13 - 106 x14 - 60 x15 - 99 x16 + 56 x17 + 60 x18 - 120 x19 - 80 x20 - 85 x21 + 46 x22 + 9 x23 + 65 x24 - 20 x25 + 38 x26 - 88 x27 - 123 x28 + 124 x29 - 54 x30 + 83 x31 >= -263
    c3: -33 x0 - 16 x1 + 34 x2 + 100 x3 - 93 x4 - 65 x5 + 81 x6 + 0 x7 + 83 x8 - 125 x9 + 22 x10 - 107 x11 + 2 x12 - 36 x13 - 99 x14 + 90 x15 + 46 x16 + 118 x17 + 29 x18 + 33 x19 + 18 x20 + 95 x21 - 28 x22 - 15 x23 + 66 x24 + 54 x25 - 115 x26 + 33 x27 + 78 x28 + 22 x29 + 89 x30 + 101 x31 >= 95
    c4: 101 x0 + 100 x1 + 43 x2 + 27 x3 - 25 x4 - 14 x5 + 92 x6 - 55 x7 - 101 x8 + 80 x9 + 19 x10 + 79 x11 + 110 x12 + 65 x13 + 3 x14 - 89 x15 + 0 x16 + 40 x17 + 77 x18 + 5 x19 + 42 x20 - 61 x21 - 69 x22 - 12 x23 + 108 x24 - 128 x25 + 109 x26 - 85 x27 - 107 x28 + 108 x29 - 110 x30 + 86 x31 >= 61
    c5: 68 x0 - 15 x1 - 98 x2 + 114 x3 + 105 x4 + 53 x5 - 106 x6 - 85 x7 + 85 x8 + 127 x9 - 78 x10 + 120 x11 + 84 x12 + 39 x13 - 50 x14 + 28 x15 + 103 x16 + 5 x17 - 61 x18 + 67 x19 + 60 x20 - 113 x21 + 115 x22 + 52 x23 + 36 x24 - 119 x25 - 112 x26 + 106 x27 + 84 x28 - 118 x29 - 61 x30 + 14 x31 >= 454
    c6: -102 x0 + 42 x1 - 97 x2 + 105 x3 + 23 x4 + 119 x5 - 88 x6 + 19 x7 - 80 x8 + 30 x9 + 74 x10 + 106 x11 + 17 x12 + 60 x13 - 28 x14 - 44 x15 - 16 x16 - 73 x17 + 116 x18 + 12 x19 - 22 x20 + 122 x21 + 42 x22 + 74 x23 + 31 x24 + 7 x25 - 69 x26 + 111 x27 - 114 x28 - 20 x29 + 10 x30 - 89 x31 >= 179
    c7: 115 x0 - 36 x1 + 50 x2 - 60 x3 + 70 x4 + 35 x5 - 95 x6 + 9 x7 - 25 x8 - 93 x9 + 71 x10 - 102 x11 - 55 x12 + 41 x13 + 126 x14 - 9 x15 + 123 x16 - 38 x17 - 80 x18 - 84 x19 + 116 x20 - 76 x21 - 125 x22 - 76 x23 + 124 x24 - 67 x25 + 93 x26 - 72 x27 - 96 x28 + 43 x29 - 60 x30 + 127 x31 >= 142
    c8: -70 x0 + 53 x1 + 122 x2 - 12 x3 - 110 x4 - 48 x5 - 106 x6 - 51 x7 - 69 x8 + 115 x9 + 91 x10 - 102 x11 + 21 x12 + 93 x13 - 92 x14 + 32 x15 - 127 x16 - 6 x17 + 102 x18 - 13 x19 - 39 x20 - 20 x21 + 58 x22 + 41 x23 - 90 x24 + 103 x25 + 63 x26 - 111 x27 + 108 x28 - 34 x29 - 49 x30 - 54 x31 >= -287
    c9: -71 x0 + 54 x1 + 39 x2 + 6 x3 + 62 x4 + 82 x5 + 67 x6 - 102 x7 - 45 x8 - 104 x9 - 62 x10 + 85 x11 + 60 x12 + 47 x13 - 11 x14 + 18 x15 - 120 x16 + 28 x17 - 126 x18 + 34 x19 - 14 x20 + 49 x21 - 38 x22 + 113 x23 - 110 x24 - 76 x25 + 65 x26 + 54 x27 + 122 x28 - 30 x29 + 80 x30 + 15 x31 >= 189
    c10: -125 x0 + 48 x1 + 99 x2 - 27 x3 + 60 x4 - 92 x5 - 56 x6 - 32 x7 - 91 x8 - 63 x9 - 4 x10 + 8 x11 + 28 x12 - 59 x13 + 13 x14 + 94 x15 + 94 x16 - 45 x17 + 105 x18 - 57 x19 + 88 x20 + 2 x21 + 14 x22 - 122 x23 + 91 x24 + 75 x25 - 108 x26 - 76 x27 + 89 x28 + 19 x29 - 81 x30 - 14 x31 >= 108
    c11: -111 x0 + 103 x1 - 25 x2 + 121 x3 + 58 x4 + 62 x5 + 12 x6 - 47 x7 - 1 x8 + 82 x9 - 85 x10 + 124 x11 - 58 x12 + 19 x13 + 48 x14 + 42 x15 + 69 x16 + 74 x17 + 3 x18 + 123 x19 - 114 x20 + 106 x21 + 18 x22 - 117 x23 - 108 x24 - 106 x25 + 74 x26 + 53 x27 - 51 x28 + 34 x29 - 2 x30 + 26 x31 >= 145
    c12: -48 x0 + 24 x1 + 101 x2 - 87 x3 + 51 x4 + 54 x5 - 50 x6 + 57 x7 + 2 x8 - 80 x9 - 5 x10 - 30 x11 + 4 x12 - 85 x13 - 84 x14 - 19 x15 + 107 x16 - 50 x17 + 58 x18 - 100 x19 - 46 x20 + 37 x21 - 112 x22 - 83 x23 - 22 x24 - 41 x25 + 34 x26 + 15 x27 - 28 x28 - 2 x29 - 98 x30 - 2 x31 >= -296
    c13: 92 x0 - 31 x1 - 20 x2 + 113 x3 - 69 x4 - 101 x5 - 72 x6 + 79 x7 - 72 x8 + 14 x9 - 121 x10 + 9 x11 + 80 x12 + 73 x13 + 63 x14 - 108 x15 + 104 x16 - 50 x17 - 127 x18 + 10 x19 - 113 x20 - 76 x21 + 65 x22 - 3 x23 - 3 x24 + 58 x25 + 7 x26 + 39 x27 + 49 x28 - 117 x29 + 60 x30 - 31 x31 >= -70
    c14: -128 x0 + 92 x1 - 103 x2 + 111 x3 + 23 x4 + 26 x5 - 71 x6 - 83 x7 + 112 x8 + 110 x9 + 84 x10 + 3 x11 + 56 x12 + 76 x13 + 26 x14 + 69 x15 + 14 x16 + 65 x17 - 106 x18 - 124 x19 + 15 x20 - 94 x21 - 116 x22 - 60 x23 + 83 x24 - 109 x25 + 120 x26 - 60 x27 - 124 x28 - 1 x29 + 72 x30 - 42 x31 >= 495
    c15: -71 x0 - 86 x1 + 115 x2 - 114 x3 - 36 x4 - 30 x5 + 22 x6 + 46 x7 + 47 x8 + 112 x9 + 8 x10 + 70 x11 - 21 x12 + 12 x13 - 21 x14 + 30 x15 - 91 x16 - 80 x17 - 122 x18 - 37 x19 + 59 x20 - 97 x21 - 43 x22 - 112 x23 - 12 x24 - 13 x25 + 41 x26 - 9 x27 - 93 x28 + 18 x29 - 19 x30 - 14 x31 >= 95
    c16: -120 x0 + 28 x1 - 27 x2 + 41 x3 - 30 x4 - 93 x5 + 18 x6 + 69 x7 - 120 x8 + 103 x9 + 10 x10 - 19 x11 - 89 x12 - 44 x13 - 35 x14 + 21 x15 + 104 x16 + 29 x17 - 100 x18 + 90 x19 - 35 x20 + 86 x21 - 98 x22 + 25 x23 + 33 x24 + 87 x25 + 66 x26 - 93 x27 + 89 x28 + 13 x29 + 78 x30 + 87 x31 >= -297
    c17: -73 x0 + 53 x1 + 23 x2 + 73 x3 + 15 x4 - 117 x5 - 81 x6 + 123 x7 - 21 x8 + 20 x9 + 56 x10 + 36 x11 + 25 x12 + 88 x13 + 13 x14 + 52 x15 - 91 x16 + 95 x17 - 111 x18 + 14 x19 + 55 x20 - 16 x21 - 21 x22 - 104 x23 + 62 x24 - 57 x25 + 63 x26 - 77 x27 - 59 x28 - 68 x29 + 51 x30 - 51 x31 >= 405
    c18: 123 x0 - 71 x1 + 15 x2 + 47 x3 - 48 x4 - 73 x5 + 10 x6 - 128 x7 - 105 x8 + 39 x9 - 66 x10 + 51 x11 - 35 x12 + 3 x13 - 48 x14 - 118 x15 + 61 x16 + 10 x17 + 106 x18 - 123 x19 + 76 x20 - 21 x21 - 41 x22 - 84 x23 + 16 x24 + 104 x25 + 60 x26 + 70 x27 - 77 x28 - 85 x29 + 61 x30 - 20 x31 >= -65
    c19: -108 x0 + 44 x1 + 97 x2 - 37 x3 + 55 x4 + 43 x5 + 56 x6 - 43 x7 - 125 x8 - 49 x9 - 29 x10 - 97 x11 - 46 x12 - 62 x13 - 85 x14 + 8 x15 - 7 x16 + 55 x17 + 112 x18 - 119 x19 + 125 x20 + 90 x21 + 71 x22 - 81 x23 - 122 x24 - 29 x25 - 98 x26 - 52 x27 - 111 x28 + 119 x29 + 75 x30 - 17 x31 >= -260
    c20: -115 x0 - 14 x1 - 32 x2 - 100 x3 - 50 x4 + 37 x5 + 10 x6 - 94 x7 - 7 x8 + 27 x9 - 24 x10 + 4 x11 - 127 x12 + 8 x13 + 34 x14 + 2 x15 + 59 x16 - 59 x17 + 126 x18 - 44 x19 - 128 x20 + 120 x21 + 54 x22 + 74 x23 - 121 x24 - 19 x25 + 79 x26 + 122 x27 - 8 x28 - 66 x29 + 50 x30 + 68 x31 >= -244
    c21: 39 x0 - 43 x1 - 66 x2 + 2 x3 + 17 x4 + 39 x5 + 117 x6 - 102 x7 - 85 x8 - 80 x9 + 79 x10 + 91 x11 + 25 x12 - 98 x13 + 125 x14 + 53 x15 + 69 x16 - 40 x17 - 56 x18 - 21 x19 - 2 x20 + 48 x21 + 52 x22 + 109 x23 + 15 x24 - 85 x25 - 36 x26 + 21 x27 - 127 x28 - 17 x29 - 53 x30 + 29 x31 >= 238
    c22: -123 x0 - 105 x1 - 39 x2 + 30 x3 + 68 x4 - 34 x5 - 101 x6 - 73 x7 - 20 x8 - 90 x9 + 106 x10 - 16 x11 + 97 x12 - 26 x13 + 20 x14 + 101 x15 + 75 x16 - 37 x17 - 124 x18 - 31 x19 + 27 x20 - 21 x21 - 65 x22 - 119 x23 - 26 x24 - 118 x25 - 88 x26 + 71 x27 + 36 x28 - 78 x29 - 80 x30 - 26 x31 >= 186
    c23: 100 x0 - 110 x1 + 121 x2 - 97 x3 + 25 x4 + 41 x5 - 37 x6 - 64 x7 + 112 x8 - 113 x9 + 100 x10 - 86 x11 - 49 x12 - 7 x13 + 58 x14 - 2 x15 + 13 x16 + 23 x17 - 1 x18 - 55 x19 + 68 x20 + 99 x21 - 38 x22 + 89 x23 - 99 x24 + 46 x25 - 73 x26 - 40 x27 - 3 x28 - 72 x29 + 105 x30 - 121 x31 >= 105
    c24: -48 x0 - 19 x1 + 20 x2 + 26 x3 - 90 x4 - 78 x5 + 121 x6 + 75 x7 - 121 x8 + 66 x9 + 86 x10 + 101 x11 + 45 x12 + 123 x13 + 20 x14 - 69 x15 + 7 x16 - 17 x17 + 11 x18 + 116 x19 + 53 x20 + 107 x21 + 101 x22 - 117 x23 - 10 x24 - 13 x25 + 102 x26 - 95 x27 - 40 x28 - 47 x29 - 83 x30 - 74 x31 >= 86
    c25: 18 x0 - 15 x1 + 113 x2 - 100 x3 - 38 x4 + 48 x5 + 66 x6 - 27 x7 - 112 x8 - 81 x9 - 2 x10 - 68 x11 + 18 x12 + 61 x13 + 124 x14 + 62 x15 + 5 x16 + 80 x17 - 117 x18 + 86 x19 - 113 x20 + 64 x21 - 13 x22 - 28 x23 + 111 x24 - 28 x25 + 99 x26 - 52 x27 - 113 x28 - 78 x29 + 26 x30 + 117 x31 >= 55
    c26: 86 x0 - 23 x1 + 103 x2 - 54 x3 + 127 x4 - 81 x5 + 93 x6 - 58 x7 - 127 x8 - 117 x9 + 53 x10 + 124 x11 - 113 x12 - 120 x13 - 107 x14 + 51 x15 + 11 x16 - 64 x17 + 106 x18 - 114 x19 - 15 x20 - 46 x21 - 44 x22 + 74 x23 - 106 x24 - 96 x25 + 83 x26 - 84 x27 + 43 x28 - 103 x29 - 42 x30 - 62 x31 >= -151
    c27: 74 x0 - 103 x1 - 112 x2 + 95 x3 - 69 x4 + 3 x5 + 6 x6 - 3 x7 - 28 x8 - 5 x9 - 38 x10 + 19 x11 + 15 x12 - 93 x13 + 52 x14 - 68 x15 + 80 x16 - 102 x17 + 96 x18 - 88 x19 - 83 x20 - 107 x21 - 57 x22 - 106 x23 + 1 x24 + 63 x25 + 24 x26 + 3 x27 - 52 x28 + 12 x29 - 105 x30 + 84 x31 >= -351
    c28: -70 x0 + 74 x1 - 6 x2 + 59 x3 + 127 x4 + 126 x5 - 8 x6 + 21 x7 - 17 x8 - 51 x9 + 100 x10 - 85 x11 - 107 x12 + 112 x13 - 5 x14 + 104 x15 - 59 x16 - 16 x17 - 84 x18 + 49 x19 + 106 x20 + 61 x21 - 36 x22 - 9 x23 + 17 x24 + 53 x25 + 39 x26 - 112 x27 + 105 x28 + 112 x29 - 20 x30 - 50 x31 >= 164
    c29: 41 x0 + 25 x1 - 7 x2 + 53 x3 - 4 x4 + 74 x5 - 89 x6 + 57 x7 - 20 x8 - 102 x9 + 118 x10 + 91 x11 + 78 x12 + 38 x13 + 42 x14 - 128 x15 - 14 x16 + 95 x17 - 124 x18 - 32 x19 - 92 x20 + 45 x21 + 59 x22 - 63 x23 - 21 x24 + 55 x25 + 108 x26 + 52 x27 + 12 x28 + 118 x29 + 44 x30 + 76 x31 >= 373
    c30: 1 x0 - 6 x1 - 40 x2 + 81 x3 + 8 x4 + 64 x5 + 75 x6 + 106 x7 - 58 x8 + 61 x9 + 86 x10 - 102 x11 + 114 x12 - 22 x13 + 116 x14 - 111 x15 + 112 x16 - 95 x17 + 58 x18 + 115 x19 - 73 x20 + 39 x21 + 19 x22 + 83 x23 + 120 x24 + 116 x25 + 13 x26 - 76 x27 - 5 x28 + 105 x29 - 61 x30 - 120 x31 >= 36
    c31: 33 x0 - 112 x1 - 20 x2 - 98 x3 + 115 x4 - 26 x5 - 91 x6 - 39 x7 - 3 x8 + 79 x9 + 7 x10 + 107 x11 - 98 x12 + 13 x13 - 16 x14 + 68 x15 - 32 x16 + 106 x17 + 89 x18 + 93 x19 + 109 x20 - 127 x21 + 126 x22 + 99 x23 + 80 x24 + 25 x25 - 49 x26 + 101 x27 - 105 x28 + 123 x29 + 126 x30 + 7 x31 >= 555
Binary
    x0 x1 x2 x3 x4 x5 x6 x7 x8 x9 x10 x11 x12 x13 x14 x15 x16 x17 x18 x19 x20 x21 x22 x23 x24 x25 x26 x27 x28 x29 x30 x31
End
